n_res = 4;
rc = [ 21, 18, 19, 19 ];
n_tasks = 30;
d = [ 2, 2, 10, 6, 2, 5, 2, 8, 9, 6, 4, 1, 2, 7, 4, 7, 1, 7, 4, 3, 5, 2, 8, 5, 5, 2, 8, 10, 10, 2 ];
rr = [| 21, 21, 21, 21, 21, 21, 21, 21, 21, 21, 21, 21, 21, 21, 21, 21, 21, 21, 21, 21, 21, 21, 21, 21, 21, 21, 21, 21, 21, 21
      | 18, 18, 18, 18, 18, 18, 18, 18, 18, 18, 18, 18, 18, 18, 18, 18, 18, 18, 18, 18, 18, 18, 18, 18, 18, 18, 18, 18, 18, 18
      | 19, 19, 19, 19, 19, 19, 19, 19, 19, 19, 19, 19, 19, 19, 19, 19, 19, 19, 19, 19, 19, 19, 19, 19, 19, 19, 19, 19, 19, 19
      | 19, 19, 19, 19, 19, 19, 19, 19, 19, 19, 19, 19, 19, 19, 19, 19, 19, 19, 19, 19, 19, 19, 19, 19, 19, 19, 19, 19, 19, 19|];
suc = [ { 6, 8, 26 },
       { 8, 22 },
       { 4, 16, 21 },
       { 5, 22 },
       { 14 },
       { 7, 9, 10 },
       { 12 },
       { 11, 13, 27 },
       { 19, 21 },
       { 15, 19, 25 },
       { 15, 17, 30 },
       { 13, 16, 18 },
       { 14, 17, 28 },
       { 24, 30 },
       { 24 },
       { 23 },
       { 21 },
       { 20, 23, 27 },
       { 22, 27 },
       { 25, 28 },
       { 23, 25 },
       { 24 },
       { 29 },
       { 29 },
       { 29 },
       { 28 },
       { 30 },
       {  },
       {  },
       {  } ];
